50
2 1 755
3 1 298
3 2 542
4 1 650
4 2 17
4 3 132
5 1 141
5 2 185
5 3 599
5 4 543
6 1 866
6 2 610
6 3 208
6 4 842
6 5 809
7 1 788
7 2 421
7 3 298
7 4 620
7 5 204
7 6 11
8 1 720
8 2 490
8 3 681
8 4 978
8 5 706
8 6 892
8 7 346
9 1 958
9 2 288
9 3 901
9 4 716
9 5 961
9 6 7
9 7 145
9 8 59
10 1 629
10 2 642
10 3 729
10 4 381
10 5 451
10 6 118
10 7 667
10 8 686
10 9 632
11 1 336
11 2 667
11 3 380
11 4 547
11 5 932
11 6 312
11 7 952
11 8 990
11 9 226
11 10 977
12 1 303
12 2 639
12 3 845
12 4 23
12 5 368
12 6 442
12 7 800
12 8 103
12 9 890
12 10 857
12 11 1000
13 1 642
13 2 490
13 3 150
13 4 468
13 5 803
13 6 404
13 7 169
13 8 757
13 9 508
13 10 520
13 11 318
13 12 330
14 1 331
14 2 592
14 3 641
14 4 887
14 5 332
14 6 759
14 7 225
14 8 920
14 9 140
14 10 750
14 11 363
14 12 982
14 13 863
15 1 403
15 2 159
15 3 419
15 4 631
15 5 377
15 6 528
15 7 597
15 8 843
15 9 188
15 10 771
15 11 838
15 12 435
15 13 939
15 14 176
16 1 608
16 2 736
16 3 388
16 4 332
16 5 679
16 6 724
16 7 220
16 8 95
16 9 293
16 10 752
16 11 654
16 12 405
16 13 566
16 14 64
16 15 774
17 1 386
17 2 642
17 3 654
17 4 200
17 5 425
17 6 350
17 7 302
17 8 981
17 9 181
17 10 376
17 11 843
17 12 847
17 13 688
17 14 184
17 15 984
17 16 188
18 1 30
18 2 209
18 3 241
18 4 398
18 5 250
18 6 73
18 7 813
18 8 457
18 9 444
18 10 812
18 11 449
18 12 878
18 13 242
18 14 395
18 15 640
18 16 410
18 17 96
19 1 12
19 2 692
19 3 110
19 4 88
19 5 899
19 6 492
19 7 671
19 8 184
19 9 711
19 10 53
19 11 141
19 12 134
19 13 670
19 14 128
19 15 398
19 16 456
19 17 27
19 18 487
20 1 21
20 2 194
20 3 566
20 4 644
20 5 428
20 6 396
20 7 158
20 8 127
20 9 422
20 10 498
20 11 636
20 12 595
20 13 504
20 14 61
20 15 468
20 16 366
20 17 608
20 18 551
20 19 4
21 1 173
21 2 110
21 3 93
21 4 294
21 5 231
21 6 258
21 7 410
21 8 723
21 9 900
21 10 399
21 11 375
21 12 981
21 13 543
21 14 624
21 15 863
21 16 111
21 17 371
21 18 721
21 19 862
21 20 638
22 1 355
22 2 552
22 3 19
22 4 49
22 5 521
22 6 247
22 7 63
22 8 107
22 9 183
22 10 835
22 11 812
22 12 763
22 13 941
22 14 190
22 15 684
22 16 673
22 17 515
22 18 428
22 19 916
22 20 568
22 21 712
23 1 127
23 2 934
23 3 979
23 4 114
23 5 2
23 6 560
23 7 88
23 8 289
23 9 914
23 10 992
23 11 674
23 12 597
23 13 345
23 14 766
23 15 455
23 16 910
23 17 705
23 18 126
23 19 280
23 20 804
23 21 120
23 22 492
24 1 972
24 2 47
24 3 561
24 4 986
24 5 784
24 6 451
24 7 456
24 8 182
24 9 754
24 10 391
24 11 160
24 12 543
24 13 446
24 14 573
24 15 903
24 16 228
24 17 837
24 18 864
24 19 111
24 20 199
24 21 343
24 22 240
24 23 219
25 1 848
25 2 265
25 3 180
25 4 353
25 5 549
25 6 120
25 7 71
25 8 517
25 9 864
25 10 649
25 11 431
25 12 161
25 13 309
25 14 474
25 15 28
25 16 255
25 17 899
25 18 690
25 19 208
25 20 251
25 21 901
25 22 857
25 23 991
25 24 568
26 1 480
26 2 189
26 3 766
26 4 470
26 5 199
26 6 903
26 7 629
26 8 461
26 9 547
26 10 18
26 11 714
26 12 601
26 13 939
26 14 76
26 15 43
26 16 335
26 17 886
26 18 568
26 19 747
26 20 752
26 21 278
26 22 43
26 23 704
26 24 371
26 25 954
27 1 173
27 2 910
27 3 852
27 4 27
27 5 267
27 6 171
27 7 257
27 8 628
27 9 996
27 10 896
27 11 735
27 12 35
27 13 324
27 14 98
27 15 764
27 16 359
27 17 903
27 18 883
27 19 330
27 20 238
27 21 443
27 22 23
27 23 668
27 24 234
27 25 795
27 26 405
28 1 446
28 2 863
28 3 768
28 4 443
28 5 523
28 6 455
28 7 921
28 8 754
28 9 655
28 10 296
28 11 843
28 12 673
28 13 781
28 14 718
28 15 666
28 16 423
28 17 769
28 18 111
28 19 822
28 20 997
28 21 752
28 22 15
28 23 299
28 24 83
28 25 421
28 26 759
28 27 892
29 1 590
29 2 926
29 3 331
29 4 209
29 5 590
29 6 238
29 7 410
29 8 435
29 9 743
29 10 128
29 11 766
29 12 105
29 13 531
29 14 115
29 15 465
29 16 396
29 17 855
29 18 32
29 19 559
29 20 688
29 21 812
29 22 85
29 23 224
29 24 388
29 25 729
29 26 517
29 27 519
29 28 300
30 1 764
30 2 288
30 3 214
30 4 5
30 5 634
30 6 368
30 7 378
30 8 44
30 9 301
30 10 538
30 11 674
30 12 873
30 13 668
30 14 833
30 15 540
30 16 876
30 17 607
30 18 984
30 19 709
30 20 911
30 21 896
30 22 520
30 23 752
30 24 168
30 25 854
30 26 373
30 27 593
30 28 322
30 29 778
31 1 147
31 2 178
31 3 249
31 4 460
31 5 407
31 6 745
31 7 804
31 8 382
31 9 633
31 10 386
31 11 413
31 12 383
31 13 704
31 14 848
31 15 485
31 16 880
31 17 48
31 18 744
31 19 901
31 20 946
31 21 846
31 22 647
31 23 78
31 24 828
31 25 896
31 26 727
31 27 361
31 28 701
31 29 37
31 30 894
32 1 761
32 2 740
32 3 256
32 4 632
32 5 270
32 6 824
32 7 848
32 8 958
32 9 281
32 10 433
32 11 271
32 12 210
32 13 842
32 14 552
32 15 567
32 16 596
32 17 776
32 18 668
32 19 478
32 20 698
32 21 894
32 22 145
32 23 641
32 24 379
32 25 823
32 26 574
32 27 488
32 28 768
32 29 198
32 30 894
32 31 723
33 1 286
33 2 211
33 3 356
33 4 520
33 5 885
33 6 798
33 7 657
33 8 807
33 9 954
33 10 930
33 11 786
33 12 273
33 13 575
33 14 801
33 15 431
33 16 970
33 17 82
33 18 886
33 19 981
33 20 650
33 21 100
33 22 142
33 23 464
33 24 203
33 25 512
33 26 844
33 27 971
33 28 834
33 29 50
33 30 820
33 31 395
33 32 851
34 1 448
34 2 82
34 3 543
34 4 204
34 5 338
34 6 108
34 7 936
34 8 137
34 9 355
34 10 280
34 11 876
34 12 602
34 13 110
34 14 235
34 15 580
34 16 293
34 17 6
34 18 124
34 19 461
34 20 449
34 21 61
34 22 43
34 23 859
34 24 788
34 25 195
34 26 133
34 27 806
34 28 209
34 29 667
34 30 109
34 31 621
34 32 147
34 33 605
35 1 212
35 2 422
35 3 694
35 4 820
35 5 851
35 6 852
35 7 879
35 8 343
35 9 426
35 10 600
35 11 728
35 12 380
35 13 97
35 14 529
35 15 990
35 16 628
35 17 495
35 18 470
35 19 648
35 20 134
35 21 633
35 22 13
35 23 603
35 24 148
35 25 517
35 26 846
35 27 158
35 28 661
35 29 219
35 30 471
35 31 172
35 32 563
35 33 405
35 34 354
36 1 30
36 2 616
36 3 582
36 4 836
36 5 793
36 6 685
36 7 556
36 8 352
36 9 156
36 10 917
36 11 875
36 12 804
36 13 114
36 14 807
36 15 234
36 16 124
36 17 435
36 18 346
36 19 119
36 20 363
36 21 344
36 22 694
36 23 183
36 24 868
36 25 27
36 26 59
36 27 108
36 28 358
36 29 855
36 30 738
36 31 961
36 32 970
36 33 437
36 34 503
36 35 292
37 1 593
37 2 889
37 3 768
37 4 488
37 5 53
37 6 956
37 7 249
37 8 127
37 9 965
37 10 852
37 11 25
37 12 334
37 13 323
37 14 952
37 15 232
37 16 409
37 17 138
37 18 720
37 19 792
37 20 212
37 21 695
37 22 496
37 23 900
37 24 68
37 25 245
37 26 26
37 27 190
37 28 201
37 29 198
37 30 852
37 31 778
37 32 939
37 33 132
37 34 960
37 35 630
37 36 199
38 1 181
38 2 300
38 3 933
38 4 13
38 5 634
38 6 58
38 7 424
38 8 84
38 9 786
38 10 819
38 11 859
38 12 646
38 13 386
38 14 989
38 15 65
38 16 107
38 17 219
38 18 108
38 19 269
38 20 256
38 21 670
38 22 942
38 23 651
38 24 10
38 25 301
38 26 461
38 27 292
38 28 982
38 29 796
38 30 112
38 31 987
38 32 355
38 33 805
38 34 985
38 35 588
38 36 821
38 37 523
39 1 779
39 2 836
39 3 591
39 4 76
39 5 670
39 6 867
39 7 733
39 8 4
39 9 487
39 10 832
39 11 330
39 12 442
39 13 802
39 14 324
39 15 226
39 16 780
39 17 824
39 18 556
39 19 355
39 20 903
39 21 229
39 22 477
39 23 906
39 24 298
39 25 294
39 26 270
39 27 843
39 28 612
39 29 973
39 30 922
39 31 504
39 32 473
39 33 789
39 34 810
39 35 319
39 36 635
39 37 681
39 38 492
40 1 873
40 2 775
40 3 161
40 4 143
40 5 828
40 6 497
40 7 441
40 8 332
40 9 463
40 10 364
40 11 385
40 12 80
40 13 826
40 14 23
40 15 429
40 16 382
40 17 761
40 18 746
40 19 832
40 20 653
40 21 302
40 22 945
40 23 914
40 24 767
40 25 209
40 26 477
40 27 124
40 28 649
40 29 617
40 30 816
40 31 104
40 32 600
40 33 94
40 34 393
40 35 97
40 36 804
40 37 566
40 38 690
40 39 347
41 1 698
41 2 908
41 3 881
41 4 363
41 5 161
41 6 165
41 7 104
41 8 173
41 9 701
41 10 685
41 11 678
41 12 958
41 13 85
41 14 658
41 15 826
41 16 683
41 17 109
41 18 806
41 19 718
41 20 605
41 21 438
41 22 250
41 23 912
41 24 797
41 25 722
41 26 780
41 27 498
41 28 56
41 29 414
41 30 59
41 31 523
41 32 833
41 33 996
41 34 495
41 35 492
41 36 48
41 37 539
41 38 793
41 39 46
41 40 946
42 1 806
42 2 444
42 3 94
42 4 343
42 5 322
42 6 648
42 7 995
42 8 912
42 9 118
42 10 425
42 11 596
42 12 377
42 13 77
42 14 930
42 15 189
42 16 755
42 17 79
42 18 208
42 19 706
42 20 2
42 21 394
42 22 902
42 23 726
42 24 727
42 25 1
42 26 678
42 27 95
42 28 820
42 29 780
42 30 346
42 31 240
42 32 136
42 33 775
42 34 956
42 35 483
42 36 625
42 37 956
42 38 357
42 39 934
42 40 513
42 41 182
43 1 980
43 2 760
43 3 437
43 4 309
43 5 850
43 6 915
43 7 640
43 8 616
43 9 72
43 10 639
43 11 632
43 12 15
43 13 303
43 14 294
43 15 914
43 16 720
43 17 968
43 18 350
43 19 675
43 20 315
43 21 206
43 22 590
43 23 565
43 24 431
43 25 826
43 26 860
43 27 945
43 28 448
43 29 748
43 30 906
43 31 221
43 32 936
43 33 706
43 34 141
43 35 162
43 36 756
43 37 213
43 38 395
43 39 317
43 40 36
43 41 20
43 42 961
44 1 911
44 2 437
44 3 612
44 4 514
44 5 857
44 6 422
44 7 456
44 8 714
44 9 758
44 10 463
44 11 30
44 12 557
44 13 20
44 14 362
44 15 877
44 16 792
44 17 474
44 18 160
44 19 191
44 20 978
44 21 114
44 22 291
44 23 688
44 24 982
44 25 848
44 26 947
44 27 761
44 28 998
44 29 379
44 30 826
44 31 182
44 32 401
44 33 601
44 34 731
44 35 854
44 36 994
44 37 136
44 38 674
44 39 352
44 40 474
44 41 895
44 42 468
44 43 280
45 1 178
45 2 786
45 3 962
45 4 678
45 5 433
45 6 949
45 7 384
45 8 999
45 9 60
45 10 154
45 11 474
45 12 391
45 13 868
45 14 235
45 15 349
45 16 311
45 17 191
45 18 683
45 19 293
45 20 703
45 21 794
45 22 793
45 23 917
45 24 259
45 25 700
45 26 974
45 27 365
45 28 512
45 29 772
45 30 124
45 31 531
45 32 759
45 33 107
45 34 173
45 35 459
45 36 82
45 37 553
45 38 197
45 39 376
45 40 954
45 41 930
45 42 710
45 43 48
45 44 195
46 1 759
46 2 39
46 3 400
46 4 285
46 5 570
46 6 879
46 7 592
46 8 272
46 9 104
46 10 437
46 11 995
46 12 795
46 13 983
46 14 772
46 15 743
46 16 969
46 17 645
46 18 224
46 19 836
46 20 140
46 21 640
46 22 54
46 23 944
46 24 750
46 25 570
46 26 673
46 27 384
46 28 840
46 29 270
46 30 96
46 31 951
46 32 922
46 33 23
46 34 486
46 35 540
46 36 239
46 37 889
46 38 942
46 39 759
46 40 656
46 41 461
46 42 875
46 43 970
46 44 696
46 45 611
47 1 636
47 2 444
47 3 469
47 4 47
47 5 248
47 6 585
47 7 495
47 8 748
47 9 389
47 10 404
47 11 685
47 12 581
47 13 990
47 14 682
47 15 976
47 16 694
47 17 96
47 18 524
47 19 370
47 20 462
47 21 841
47 22 241
47 23 395
47 24 95
47 25 702
47 26 741
47 27 229
47 28 188
47 29 372
47 30 891
47 31 999
47 32 802
47 33 914
47 34 522
47 35 995
47 36 888
47 37 57
47 38 28
47 39 829
47 40 109
47 41 761
47 42 754
47 43 767
47 44 395
47 45 447
47 46 599
48 1 746
48 2 780
48 3 501
48 4 545
48 5 842
48 6 349
48 7 940
48 8 39
48 9 173
48 10 357
48 11 378
48 12 428
48 13 506
48 14 835
48 15 645
48 16 878
48 17 67
48 18 254
48 19 722
48 20 483
48 21 303
48 22 59
48 23 844
48 24 496
48 25 612
48 26 141
48 27 906
48 28 869
48 29 277
48 30 561
48 31 563
48 32 554
48 33 130
48 34 103
48 35 637
48 36 256
48 37 681
48 38 454
48 39 721
48 40 567
48 41 723
48 42 95
48 43 105
48 44 685
48 45 671
48 46 209
48 47 396
49 1 153
49 2 129
49 3 176
49 4 479
49 5 316
49 6 455
49 7 469
49 8 675
49 9 430
49 10 306
49 11 27
49 12 245
49 13 610
49 14 434
49 15 401
49 16 607
49 17 82
49 18 236
49 19 263
49 20 896
49 21 399
49 22 798
49 23 79
49 24 756
49 25 583
49 26 456
49 27 17
49 28 471
49 29 381
49 30 109
49 31 406
49 32 846
49 33 74
49 34 805
49 35 318
49 36 434
49 37 522
49 38 344
49 39 72
49 40 10
49 41 412
49 42 900
49 43 755
49 44 412
49 45 863
49 46 924
49 47 44
49 48 130
